p cnf 81 2385
1 10 19 28 37 46 55 64 73 0
2 11 20 29 38 47 56 65 74 0
3 12 21 30 39 48 57 66 75 0
4 13 22 31 40 49 58 67 76 0
5 14 23 32 41 50 59 68 77 0
6 15 24 33 42 51 60 69 78 0
7 16 25 34 43 52 61 70 79 0
8 17 26 35 44 53 62 71 80 0
9 18 27 36 45 54 63 72 81 0
-1 -11 0
-1 -12 0
-1 -13 0
-1 -14 0
-1 -15 0
-1 -16 0
-1 -17 0
-1 -18 0
-2 -10 0
-2 -12 0
-2 -13 0
-2 -14 0
-2 -15 0
-2 -16 0
-2 -17 0
-2 -18 0
-3 -10 0
-3 -11 0
-3 -13 0
-3 -14 0
-3 -15 0
-3 -16 0
-3 -17 0
-3 -18 0
-4 -10 0
-4 -11 0
-4 -12 0
-4 -14 0
-4 -15 0
-4 -16 0
-4 -17 0
-4 -18 0
-5 -10 0
-5 -11 0
-5 -12 0
-5 -13 0
-5 -15 0
-5 -16 0
-5 -17 0
-5 -18 0
-6 -10 0
-6 -11 0
-6 -12 0
-6 -13 0
-6 -14 0
-6 -16 0
-6 -17 0
-6 -18 0
-7 -10 0
-7 -11 0
-7 -12 0
-7 -13 0
-7 -14 0
-7 -15 0
-7 -17 0
-7 -18 0
-8 -10 0
-8 -11 0
-8 -12 0
-8 -13 0
-8 -14 0
-8 -15 0
-8 -16 0
-8 -18 0
-9 -10 0
-9 -11 0
-9 -12 0
-9 -13 0
-9 -14 0
-9 -15 0
-9 -16 0
-9 -17 0
-1 -29 0
-1 -30 0
-1 -31 0
-1 -32 0
-1 -33 0
-1 -34 0
-1 -35 0
-1 -36 0
-2 -28 0
-2 -30 0
-2 -31 0
-2 -32 0
-2 -33 0
-2 -34 0
-2 -35 0
-2 -36 0
-3 -28 0
-3 -29 0
-3 -31 0
-3 -32 0
-3 -33 0
-3 -34 0
-3 -35 0
-3 -36 0
-4 -28 0
-4 -29 0
-4 -30 0
-4 -32 0
-4 -33 0
-4 -34 0
-4 -35 0
-4 -36 0
-5 -28 0
-5 -29 0
-5 -30 0
-5 -31 0
-5 -33 0
-5 -34 0
-5 -35 0
-5 -36 0
-6 -28 0
-6 -29 0
-6 -30 0
-6 -31 0
-6 -32 0
-6 -34 0
-6 -35 0
-6 -36 0
-7 -28 0
-7 -29 0
-7 -30 0
-7 -31 0
-7 -32 0
-7 -33 0
-7 -35 0
-7 -36 0
-8 -28 0
-8 -29 0
-8 -30 0
-8 -31 0
-8 -32 0
-8 -33 0
-8 -34 0
-8 -36 0
-9 -28 0
-9 -29 0
-9 -30 0
-9 -31 0
-9 -32 0
-9 -33 0
-9 -34 0
-9 -35 0
-1 -38 0
-1 -39 0
-1 -40 0
-1 -41 0
-1 -42 0
-1 -43 0
-1 -44 0
-1 -45 0
-2 -37 0
-2 -39 0
-2 -40 0
-2 -41 0
-2 -42 0
-2 -43 0
-2 -44 0
-2 -45 0
-3 -37 0
-3 -38 0
-3 -40 0
-3 -41 0
-3 -42 0
-3 -43 0
-3 -44 0
-3 -45 0
-4 -37 0
-4 -38 0
-4 -39 0
-4 -41 0
-4 -42 0
-4 -43 0
-4 -44 0
-4 -45 0
-5 -37 0
-5 -38 0
-5 -39 0
-5 -40 0
-5 -42 0
-5 -43 0
-5 -44 0
-5 -45 0
-6 -37 0
-6 -38 0
-6 -39 0
-6 -40 0
-6 -41 0
-6 -43 0
-6 -44 0
-6 -45 0
-7 -37 0
-7 -38 0
-7 -39 0
-7 -40 0
-7 -41 0
-7 -42 0
-7 -44 0
-7 -45 0
-8 -37 0
-8 -38 0
-8 -39 0
-8 -40 0
-8 -41 0
-8 -42 0
-8 -43 0
-8 -45 0
-9 -37 0
-9 -38 0
-9 -39 0
-9 -40 0
-9 -41 0
-9 -42 0
-9 -43 0
-9 -44 0
-1 -56 0
-1 -57 0
-1 -58 0
-1 -59 0
-1 -60 0
-1 -61 0
-1 -62 0
-1 -63 0
-2 -55 0
-2 -57 0
-2 -58 0
-2 -59 0
-2 -60 0
-2 -61 0
-2 -62 0
-2 -63 0
-3 -55 0
-3 -56 0
-3 -58 0
-3 -59 0
-3 -60 0
-3 -61 0
-3 -62 0
-3 -63 0
-4 -55 0
-4 -56 0
-4 -57 0
-4 -59 0
-4 -60 0
-4 -61 0
-4 -62 0
-4 -63 0
-5 -55 0
-5 -56 0
-5 -57 0
-5 -58 0
-5 -60 0
-5 -61 0
-5 -62 0
-5 -63 0
-6 -55 0
-6 -56 0
-6 -57 0
-6 -58 0
-6 -59 0
-6 -61 0
-6 -62 0
-6 -63 0
-7 -55 0
-7 -56 0
-7 -57 0
-7 -58 0
-7 -59 0
-7 -60 0
-7 -62 0
-7 -63 0
-8 -55 0
-8 -56 0
-8 -57 0
-8 -58 0
-8 -59 0
-8 -60 0
-8 -61 0
-8 -63 0
-9 -55 0
-9 -56 0
-9 -57 0
-9 -58 0
-9 -59 0
-9 -60 0
-9 -61 0
-9 -62 0
-10 -29 0
-10 -30 0
-10 -31 0
-10 -32 0
-10 -33 0
-10 -34 0
-10 -35 0
-10 -36 0
-11 -28 0
-11 -30 0
-11 -31 0
-11 -32 0
-11 -33 0
-11 -34 0
-11 -35 0
-11 -36 0
-12 -28 0
-12 -29 0
-12 -31 0
-12 -32 0
-12 -33 0
-12 -34 0
-12 -35 0
-12 -36 0
-13 -28 0
-13 -29 0
-13 -30 0
-13 -32 0
-13 -33 0
-13 -34 0
-13 -35 0
-13 -36 0
-14 -28 0
-14 -29 0
-14 -30 0
-14 -31 0
-14 -33 0
-14 -34 0
-14 -35 0
-14 -36 0
-15 -28 0
-15 -29 0
-15 -30 0
-15 -31 0
-15 -32 0
-15 -34 0
-15 -35 0
-15 -36 0
-16 -28 0
-16 -29 0
-16 -30 0
-16 -31 0
-16 -32 0
-16 -33 0
-16 -35 0
-16 -36 0
-17 -28 0
-17 -29 0
-17 -30 0
-17 -31 0
-17 -32 0
-17 -33 0
-17 -34 0
-17 -36 0
-18 -28 0
-18 -29 0
-18 -30 0
-18 -31 0
-18 -32 0
-18 -33 0
-18 -34 0
-18 -35 0
-10 -47 0
-10 -48 0
-10 -49 0
-10 -50 0
-10 -51 0
-10 -52 0
-10 -53 0
-10 -54 0
-11 -46 0
-11 -48 0
-11 -49 0
-11 -50 0
-11 -51 0
-11 -52 0
-11 -53 0
-11 -54 0
-12 -46 0
-12 -47 0
-12 -49 0
-12 -50 0
-12 -51 0
-12 -52 0
-12 -53 0
-12 -54 0
-13 -46 0
-13 -47 0
-13 -48 0
-13 -50 0
-13 -51 0
-13 -52 0
-13 -53 0
-13 -54 0
-14 -46 0
-14 -47 0
-14 -48 0
-14 -49 0
-14 -51 0
-14 -52 0
-14 -53 0
-14 -54 0
-15 -46 0
-15 -47 0
-15 -48 0
-15 -49 0
-15 -50 0
-15 -52 0
-15 -53 0
-15 -54 0
-16 -46 0
-16 -47 0
-16 -48 0
-16 -49 0
-16 -50 0
-16 -51 0
-16 -53 0
-16 -54 0
-17 -46 0
-17 -47 0
-17 -48 0
-17 -49 0
-17 -50 0
-17 -51 0
-17 -52 0
-17 -54 0
-18 -46 0
-18 -47 0
-18 -48 0
-18 -49 0
-18 -50 0
-18 -51 0
-18 -52 0
-18 -53 0
-10 -56 0
-10 -57 0
-10 -58 0
-10 -59 0
-10 -60 0
-10 -61 0
-10 -62 0
-10 -63 0
-11 -55 0
-11 -57 0
-11 -58 0
-11 -59 0
-11 -60 0
-11 -61 0
-11 -62 0
-11 -63 0
-12 -55 0
-12 -56 0
-12 -58 0
-12 -59 0
-12 -60 0
-12 -61 0
-12 -62 0
-12 -63 0
-13 -55 0
-13 -56 0
-13 -57 0
-13 -59 0
-13 -60 0
-13 -61 0
-13 -62 0
-13 -63 0
-14 -55 0
-14 -56 0
-14 -57 0
-14 -58 0
-14 -60 0
-14 -61 0
-14 -62 0
-14 -63 0
-15 -55 0
-15 -56 0
-15 -57 0
-15 -58 0
-15 -59 0
-15 -61 0
-15 -62 0
-15 -63 0
-16 -55 0
-16 -56 0
-16 -57 0
-16 -58 0
-16 -59 0
-16 -60 0
-16 -62 0
-16 -63 0
-17 -55 0
-17 -56 0
-17 -57 0
-17 -58 0
-17 -59 0
-17 -60 0
-17 -61 0
-17 -63 0
-18 -55 0
-18 -56 0
-18 -57 0
-18 -58 0
-18 -59 0
-18 -60 0
-18 -61 0
-18 -62 0
-19 -29 0
-19 -30 0
-19 -31 0
-19 -32 0
-19 -33 0
-19 -34 0
-19 -35 0
-19 -36 0
-20 -28 0
-20 -30 0
-20 -31 0
-20 -32 0
-20 -33 0
-20 -34 0
-20 -35 0
-20 -36 0
-21 -28 0
-21 -29 0
-21 -31 0
-21 -32 0
-21 -33 0
-21 -34 0
-21 -35 0
-21 -36 0
-22 -28 0
-22 -29 0
-22 -30 0
-22 -32 0
-22 -33 0
-22 -34 0
-22 -35 0
-22 -36 0
-23 -28 0
-23 -29 0
-23 -30 0
-23 -31 0
-23 -33 0
-23 -34 0
-23 -35 0
-23 -36 0
-24 -28 0
-24 -29 0
-24 -30 0
-24 -31 0
-24 -32 0
-24 -34 0
-24 -35 0
-24 -36 0
-25 -28 0
-25 -29 0
-25 -30 0
-25 -31 0
-25 -32 0
-25 -33 0
-25 -35 0
-25 -36 0
-26 -28 0
-26 -29 0
-26 -30 0
-26 -31 0
-26 -32 0
-26 -33 0
-26 -34 0
-26 -36 0
-27 -28 0
-27 -29 0
-27 -30 0
-27 -31 0
-27 -32 0
-27 -33 0
-27 -34 0
-27 -35 0
-19 -74 0
-19 -75 0
-19 -76 0
-19 -77 0
-19 -78 0
-19 -79 0
-19 -80 0
-19 -81 0
-20 -73 0
-20 -75 0
-20 -76 0
-20 -77 0
-20 -78 0
-20 -79 0
-20 -80 0
-20 -81 0
-21 -73 0
-21 -74 0
-21 -76 0
-21 -77 0
-21 -78 0
-21 -79 0
-21 -80 0
-21 -81 0
-22 -73 0
-22 -74 0
-22 -75 0
-22 -77 0
-22 -78 0
-22 -79 0
-22 -80 0
-22 -81 0
-23 -73 0
-23 -74 0
-23 -75 0
-23 -76 0
-23 -78 0
-23 -79 0
-23 -80 0
-23 -81 0
-24 -73 0
-24 -74 0
-24 -75 0
-24 -76 0
-24 -77 0
-24 -79 0
-24 -80 0
-24 -81 0
-25 -73 0
-25 -74 0
-25 -75 0
-25 -76 0
-25 -77 0
-25 -78 0
-25 -80 0
-25 -81 0
-26 -73 0
-26 -74 0
-26 -75 0
-26 -76 0
-26 -77 0
-26 -78 0
-26 -79 0
-26 -81 0
-27 -73 0
-27 -74 0
-27 -75 0
-27 -76 0
-27 -77 0
-27 -78 0
-27 -79 0
-27 -80 0
-37 -47 0
-37 -48 0
-37 -49 0
-37 -50 0
-37 -51 0
-37 -52 0
-37 -53 0
-37 -54 0
-38 -46 0
-38 -48 0
-38 -49 0
-38 -50 0
-38 -51 0
-38 -52 0
-38 -53 0
-38 -54 0
-39 -46 0
-39 -47 0
-39 -49 0
-39 -50 0
-39 -51 0
-39 -52 0
-39 -53 0
-39 -54 0
-40 -46 0
-40 -47 0
-40 -48 0
-40 -50 0
-40 -51 0
-40 -52 0
-40 -53 0
-40 -54 0
-41 -46 0
-41 -47 0
-41 -48 0
-41 -49 0
-41 -51 0
-41 -52 0
-41 -53 0
-41 -54 0
-42 -46 0
-42 -47 0
-42 -48 0
-42 -49 0
-42 -50 0
-42 -52 0
-42 -53 0
-42 -54 0
-43 -46 0
-43 -47 0
-43 -48 0
-43 -49 0
-43 -50 0
-43 -51 0
-43 -53 0
-43 -54 0
-44 -46 0
-44 -47 0
-44 -48 0
-44 -49 0
-44 -50 0
-44 -51 0
-44 -52 0
-44 -54 0
-45 -46 0
-45 -47 0
-45 -48 0
-45 -49 0
-45 -50 0
-45 -51 0
-45 -52 0
-45 -53 0
-37 -74 0
-37 -75 0
-37 -76 0
-37 -77 0
-37 -78 0
-37 -79 0
-37 -80 0
-37 -81 0
-38 -73 0
-38 -75 0
-38 -76 0
-38 -77 0
-38 -78 0
-38 -79 0
-38 -80 0
-38 -81 0
-39 -73 0
-39 -74 0
-39 -76 0
-39 -77 0
-39 -78 0
-39 -79 0
-39 -80 0
-39 -81 0
-40 -73 0
-40 -74 0
-40 -75 0
-40 -77 0
-40 -78 0
-40 -79 0
-40 -80 0
-40 -81 0
-41 -73 0
-41 -74 0
-41 -75 0
-41 -76 0
-41 -78 0
-41 -79 0
-41 -80 0
-41 -81 0
-42 -73 0
-42 -74 0
-42 -75 0
-42 -76 0
-42 -77 0
-42 -79 0
-42 -80 0
-42 -81 0
-43 -73 0
-43 -74 0
-43 -75 0
-43 -76 0
-43 -77 0
-43 -78 0
-43 -80 0
-43 -81 0
-44 -73 0
-44 -74 0
-44 -75 0
-44 -76 0
-44 -77 0
-44 -78 0
-44 -79 0
-44 -81 0
-45 -73 0
-45 -74 0
-45 -75 0
-45 -76 0
-45 -77 0
-45 -78 0
-45 -79 0
-45 -80 0
-55 -74 0
-55 -75 0
-55 -76 0
-55 -77 0
-55 -78 0
-55 -79 0
-55 -80 0
-55 -81 0
-56 -73 0
-56 -75 0
-56 -76 0
-56 -77 0
-56 -78 0
-56 -79 0
-56 -80 0
-56 -81 0
-57 -73 0
-57 -74 0
-57 -76 0
-57 -77 0
-57 -78 0
-57 -79 0
-57 -80 0
-57 -81 0
-58 -73 0
-58 -74 0
-58 -75 0
-58 -77 0
-58 -78 0
-58 -79 0
-58 -80 0
-58 -81 0
-59 -73 0
-59 -74 0
-59 -75 0
-59 -76 0
-59 -78 0
-59 -79 0
-59 -80 0
-59 -81 0
-60 -73 0
-60 -74 0
-60 -75 0
-60 -76 0
-60 -77 0
-60 -79 0
-60 -80 0
-60 -81 0
-61 -73 0
-61 -74 0
-61 -75 0
-61 -76 0
-61 -77 0
-61 -78 0
-61 -80 0
-61 -81 0
-62 -73 0
-62 -74 0
-62 -75 0
-62 -76 0
-62 -77 0
-62 -78 0
-62 -79 0
-62 -81 0
-63 -73 0
-63 -74 0
-63 -75 0
-63 -76 0
-63 -77 0
-63 -78 0
-63 -79 0
-63 -80 0
-1 -2 0
-1 -3 0
-1 -4 0
-1 -5 0
-1 -6 0
-1 -7 0
-1 -8 0
-1 -9 0
-2 -3 0
-2 -4 0
-2 -5 0
-2 -6 0
-2 -7 0
-2 -8 0
-2 -9 0
-3 -4 0
-3 -5 0
-3 -6 0
-3 -7 0
-3 -8 0
-3 -9 0
-4 -5 0
-4 -6 0
-4 -7 0
-4 -8 0
-4 -9 0
-5 -6 0
-5 -7 0
-5 -8 0
-5 -9 0
-6 -7 0
-6 -8 0
-6 -9 0
-7 -8 0
-7 -9 0
-8 -9 0
-10 -11 0
-10 -12 0
-10 -13 0
-10 -14 0
-10 -15 0
-10 -16 0
-10 -17 0
-10 -18 0
-11 -12 0
-11 -13 0
-11 -14 0
-11 -15 0
-11 -16 0
-11 -17 0
-11 -18 0
-12 -13 0
-12 -14 0
-12 -15 0
-12 -16 0
-12 -17 0
-12 -18 0
-13 -14 0
-13 -15 0
-13 -16 0
-13 -17 0
-13 -18 0
-14 -15 0
-14 -16 0
-14 -17 0
-14 -18 0
-15 -16 0
-15 -17 0
-15 -18 0
-16 -17 0
-16 -18 0
-17 -18 0
-19 -20 0
-19 -21 0
-19 -22 0
-19 -23 0
-19 -24 0
-19 -25 0
-19 -26 0
-19 -27 0
-20 -21 0
-20 -22 0
-20 -23 0
-20 -24 0
-20 -25 0
-20 -26 0
-20 -27 0
-21 -22 0
-21 -23 0
-21 -24 0
-21 -25 0
-21 -26 0
-21 -27 0
-22 -23 0
-22 -24 0
-22 -25 0
-22 -26 0
-22 -27 0
-23 -24 0
-23 -25 0
-23 -26 0
-23 -27 0
-24 -25 0
-24 -26 0
-24 -27 0
-25 -26 0
-25 -27 0
-26 -27 0
-28 -29 0
-28 -30 0
-28 -31 0
-28 -32 0
-28 -33 0
-28 -34 0
-28 -35 0
-28 -36 0
-29 -30 0
-29 -31 0
-29 -32 0
-29 -33 0
-29 -34 0
-29 -35 0
-29 -36 0
-30 -31 0
-30 -32 0
-30 -33 0
-30 -34 0
-30 -35 0
-30 -36 0
-31 -32 0
-31 -33 0
-31 -34 0
-31 -35 0
-31 -36 0
-32 -33 0
-32 -34 0
-32 -35 0
-32 -36 0
-33 -34 0
-33 -35 0
-33 -36 0
-34 -35 0
-34 -36 0
-35 -36 0
-37 -38 0
-37 -39 0
-37 -40 0
-37 -41 0
-37 -42 0
-37 -43 0
-37 -44 0
-37 -45 0
-38 -39 0
-38 -40 0
-38 -41 0
-38 -42 0
-38 -43 0
-38 -44 0
-38 -45 0
-39 -40 0
-39 -41 0
-39 -42 0
-39 -43 0
-39 -44 0
-39 -45 0
-40 -41 0
-40 -42 0
-40 -43 0
-40 -44 0
-40 -45 0
-41 -42 0
-41 -43 0
-41 -44 0
-41 -45 0
-42 -43 0
-42 -44 0
-42 -45 0
-43 -44 0
-43 -45 0
-44 -45 0
-46 -47 0
-46 -48 0
-46 -49 0
-46 -50 0
-46 -51 0
-46 -52 0
-46 -53 0
-46 -54 0
-47 -48 0
-47 -49 0
-47 -50 0
-47 -51 0
-47 -52 0
-47 -53 0
-47 -54 0
-48 -49 0
-48 -50 0
-48 -51 0
-48 -52 0
-48 -53 0
-48 -54 0
-49 -50 0
-49 -51 0
-49 -52 0
-49 -53 0
-49 -54 0
-50 -51 0
-50 -52 0
-50 -53 0
-50 -54 0
-51 -52 0
-51 -53 0
-51 -54 0
-52 -53 0
-52 -54 0
-53 -54 0
-55 -56 0
-55 -57 0
-55 -58 0
-55 -59 0
-55 -60 0
-55 -61 0
-55 -62 0
-55 -63 0
-56 -57 0
-56 -58 0
-56 -59 0
-56 -60 0
-56 -61 0
-56 -62 0
-56 -63 0
-57 -58 0
-57 -59 0
-57 -60 0
-57 -61 0
-57 -62 0
-57 -63 0
-58 -59 0
-58 -60 0
-58 -61 0
-58 -62 0
-58 -63 0
-59 -60 0
-59 -61 0
-59 -62 0
-59 -63 0
-60 -61 0
-60 -62 0
-60 -63 0
-61 -62 0
-61 -63 0
-62 -63 0
-64 -65 0
-64 -66 0
-64 -67 0
-64 -68 0
-64 -69 0
-64 -70 0
-64 -71 0
-64 -72 0
-65 -66 0
-65 -67 0
-65 -68 0
-65 -69 0
-65 -70 0
-65 -71 0
-65 -72 0
-66 -67 0
-66 -68 0
-66 -69 0
-66 -70 0
-66 -71 0
-66 -72 0
-67 -68 0
-67 -69 0
-67 -70 0
-67 -71 0
-67 -72 0
-68 -69 0
-68 -70 0
-68 -71 0
-68 -72 0
-69 -70 0
-69 -71 0
-69 -72 0
-70 -71 0
-70 -72 0
-71 -72 0
-73 -74 0
-73 -75 0
-73 -76 0
-73 -77 0
-73 -78 0
-73 -79 0
-73 -80 0
-73 -81 0
-74 -75 0
-74 -76 0
-74 -77 0
-74 -78 0
-74 -79 0
-74 -80 0
-74 -81 0
-75 -76 0
-75 -77 0
-75 -78 0
-75 -79 0
-75 -80 0
-75 -81 0
-76 -77 0
-76 -78 0
-76 -79 0
-76 -80 0
-76 -81 0
-77 -78 0
-77 -79 0
-77 -80 0
-77 -81 0
-78 -79 0
-78 -80 0
-78 -81 0
-79 -80 0
-79 -81 0
-80 -81 0
-1 -10  0
-1 -19  0
-1 -28  0
-1 -37  0
-1 -46  0
-1 -55  0
-1 -64  0
-1 -73  0
-2 -11  0
-2 -20  0
-2 -29  0
-2 -38  0
-2 -47  0
-2 -56  0
-2 -65  0
-2 -74  0
-3 -12  0
-3 -21  0
-3 -30  0
-3 -39  0
-3 -48  0
-3 -57  0
-3 -66  0
-3 -75  0
-4 -13  0
-4 -22  0
-4 -31  0
-4 -40  0
-4 -49  0
-4 -58  0
-4 -67  0
-4 -76  0
-5 -14  0
-5 -23  0
-5 -32  0
-5 -41  0
-5 -50  0
-5 -59  0
-5 -68  0
-5 -77  0
-6 -15  0
-6 -24  0
-6 -33  0
-6 -42  0
-6 -51  0
-6 -60  0
-6 -69  0
-6 -78  0
-7 -16  0
-7 -25  0
-7 -34  0
-7 -43  0
-7 -52  0
-7 -61  0
-7 -70  0
-7 -79  0
-8 -17  0
-8 -26  0
-8 -35  0
-8 -44  0
-8 -53  0
-8 -62  0
-8 -71  0
-8 -80  0
-9 -18  0
-9 -27  0
-9 -36  0
-9 -45  0
-9 -54  0
-9 -63  0
-9 -72  0
-9 -81  0
-10 -19  0
-10 -28  0
-10 -37  0
-10 -46  0
-10 -55  0
-10 -64  0
-10 -73  0
-11 -20  0
-11 -29  0
-11 -38  0
-11 -47  0
-11 -56  0
-11 -65  0
-11 -74  0
-12 -21  0
-12 -30  0
-12 -39  0
-12 -48  0
-12 -57  0
-12 -66  0
-12 -75  0
-13 -22  0
-13 -31  0
-13 -40  0
-13 -49  0
-13 -58  0
-13 -67  0
-13 -76  0
-14 -23  0
-14 -32  0
-14 -41  0
-14 -50  0
-14 -59  0
-14 -68  0
-14 -77  0
-15 -24  0
-15 -33  0
-15 -42  0
-15 -51  0
-15 -60  0
-15 -69  0
-15 -78  0
-16 -25  0
-16 -34  0
-16 -43  0
-16 -52  0
-16 -61  0
-16 -70  0
-16 -79  0
-17 -26  0
-17 -35  0
-17 -44  0
-17 -53  0
-17 -62  0
-17 -71  0
-17 -80  0
-18 -27  0
-18 -36  0
-18 -45  0
-18 -54  0
-18 -63  0
-18 -72  0
-18 -81  0
-19 -28  0
-19 -37  0
-19 -46  0
-19 -55  0
-19 -64  0
-19 -73  0
-20 -29  0
-20 -38  0
-20 -47  0
-20 -56  0
-20 -65  0
-20 -74  0
-21 -30  0
-21 -39  0
-21 -48  0
-21 -57  0
-21 -66  0
-21 -75  0
-22 -31  0
-22 -40  0
-22 -49  0
-22 -58  0
-22 -67  0
-22 -76  0
-23 -32  0
-23 -41  0
-23 -50  0
-23 -59  0
-23 -68  0
-23 -77  0
-24 -33  0
-24 -42  0
-24 -51  0
-24 -60  0
-24 -69  0
-24 -78  0
-25 -34  0
-25 -43  0
-25 -52  0
-25 -61  0
-25 -70  0
-25 -79  0
-26 -35  0
-26 -44  0
-26 -53  0
-26 -62  0
-26 -71  0
-26 -80  0
-27 -36  0
-27 -45  0
-27 -54  0
-27 -63  0
-27 -72  0
-27 -81  0
-28 -37  0
-28 -46  0
-28 -55  0
-28 -64  0
-28 -73  0
-29 -38  0
-29 -47  0
-29 -56  0
-29 -65  0
-29 -74  0
-30 -39  0
-30 -48  0
-30 -57  0
-30 -66  0
-30 -75  0
-31 -40  0
-31 -49  0
-31 -58  0
-31 -67  0
-31 -76  0
-32 -41  0
-32 -50  0
-32 -59  0
-32 -68  0
-32 -77  0
-33 -42  0
-33 -51  0
-33 -60  0
-33 -69  0
-33 -78  0
-34 -43  0
-34 -52  0
-34 -61  0
-34 -70  0
-34 -79  0
-35 -44  0
-35 -53  0
-35 -62  0
-35 -71  0
-35 -80  0
-36 -45  0
-36 -54  0
-36 -63  0
-36 -72  0
-36 -81  0
-37 -46  0
-37 -55  0
-37 -64  0
-37 -73  0
-38 -47  0
-38 -56  0
-38 -65  0
-38 -74  0
-39 -48  0
-39 -57  0
-39 -66  0
-39 -75  0
-40 -49  0
-40 -58  0
-40 -67  0
-40 -76  0
-41 -50  0
-41 -59  0
-41 -68  0
-41 -77  0
-42 -51  0
-42 -60  0
-42 -69  0
-42 -78  0
-43 -52  0
-43 -61  0
-43 -70  0
-43 -79  0
-44 -53  0
-44 -62  0
-44 -71  0
-44 -80  0
-45 -54  0
-45 -63  0
-45 -72  0
-45 -81  0
-46 -55  0
-46 -64  0
-46 -73  0
-47 -56  0
-47 -65  0
-47 -74  0
-48 -57  0
-48 -66  0
-48 -75  0
-49 -58  0
-49 -67  0
-49 -76  0
-50 -59  0
-50 -68  0
-50 -77  0
-51 -60  0
-51 -69  0
-51 -78  0
-52 -61  0
-52 -70  0
-52 -79  0
-53 -62  0
-53 -71  0
-53 -80  0
-54 -63  0
-54 -72  0
-54 -81  0
-55 -64  0
-55 -73  0
-56 -65  0
-56 -74  0
-57 -66  0
-57 -75  0
-58 -67  0
-58 -76  0
-59 -68  0
-59 -77  0
-60 -69  0
-60 -78  0
-61 -70  0
-61 -79  0
-62 -71  0
-62 -80  0
-63 -72  0
-63 -81  0
-64 -73  0
-65 -74  0
-66 -75  0
-67 -76  0
-68 -77  0
-69 -78  0
-70 -79  0
-71 -80  0
-72 -81  0
